experiment/data/lkh-res/Vrp-Set-Golden-n241/Vrp-Set-Golden-n241-lkh/1.lkh1.vrp
NAME : 1
COMMENT : CVRP Instance
TYPE : CVRP
DIMENSION : 241
EDGE_WEIGHT_TYPE : EUC_2D
CAPACITY : 200
NODE_COORD_SECTION
1	0	0
2	577	0
3	289	500
4	-288	500
5	-576	0
6	-288	-499
7	289	-499
8	866	500
9	0	1000
10	-865	500
11	-865	-499
12	0	-999
13	866	-499
14	534	75
15	332	425
16	650	-124
17	722	-249
18	794	-374
19	650	125
20	722	250
21	794	375
22	202	500
23	-201	500
24	433	500
25	577	500
26	722	500
27	217	625
28	144	750
29	72	875
30	-331	425
31	-533	75
32	-216	625
33	-143	750
34	-71	875
35	-432	500
36	-576	500
37	-721	500
38	-533	-74
39	-331	-424
40	-649	125
41	-721	250
42	-793	375
43	-649	-124
44	-721	-249
45	-793	-374
46	-201	-499
47	202	-499
48	-432	-499
49	-576	-499
50	-721	-499
51	-216	-624
52	-143	-749
53	-71	-874
54	332	-424
55	534	-74
56	217	-624
57	144	-749
58	72	-874
59	433	-499
60	577	-499
61	722	-499
62	722	0
63	361	625
64	-360	625
65	-721	0
66	-360	-624
67	361	-624
68	1083	625
69	0	1250
70	-1082	625
71	-1082	-624
72	0	-1249
73	1083	-624
74	668	94
75	415	531
76	812	-155
77	902	-312
78	992	-468
79	812	156
80	902	313
81	992	469
82	253	625
83	-252	625
84	541	625
85	722	625
86	902	625
87	271	781
88	180	938
89	90	1094
90	-414	531
91	-667	94
92	-270	781
93	-179	938
94	-89	1094
95	-540	625
96	-721	625
97	-901	625
98	-667	-93
99	-414	-530
100	-811	156
101	-901	313
102	-991	469
103	-811	-155
104	-901	-312
105	-991	-468
106	-252	-624
107	253	-624
108	-540	-624
109	-721	-624
110	-901	-624
111	-270	-780
112	-179	-937
113	-89	-1093
114	415	-530
115	668	-93
116	271	-780
117	180	-937
118	90	-1093
119	541	-624
120	722	-624
121	902	-624
122	902	0
123	451	781
124	-450	781
125	-901	0
126	-450	-780
127	451	-780
128	1353	781
129	0	1563
130	-1352	781
131	-1352	-780
132	0	-1562
133	1353	-780
134	834	117
135	519	664
136	1015	-194
137	1128	-390
138	1240	-585
139	1015	195
140	1128	391
141	1240	586
142	316	781
143	-315	781
144	677	781
145	902	781
146	1128	781
147	338	977
148	226	1172
149	113	1367
150	-518	664
151	-833	117
152	-337	977
153	-225	1172
154	-112	1367
155	-676	781
156	-901	781
157	-1127	781
158	-833	-116
159	-518	-663
160	-1014	195
161	-1127	391
162	-1239	586
163	-1014	-194
164	-1127	-390
165	-1239	-585
166	-315	-780
167	316	-780
168	-676	-780
169	-901	-780
170	-1127	-780
171	-337	-976
172	-225	-1171
173	-112	-1366
174	519	-663
175	834	-116
176	338	-976
177	226	-1171
178	113	-1366
179	677	-780
180	902	-780
181	1128	-780
182	1128	0
183	564	977
184	-563	977
185	-1127	0
186	-563	-976
187	564	-976
188	1691	977
189	0	1953
190	-1690	977
191	-1690	-976
192	0	-1952
193	1691	-976
194	1043	146
195	648	830
196	1269	-243
197	1410	-487
198	1551	-731
199	1269	244
200	1410	488
201	1551	732
202	395	977
203	-394	977
204	846	977
205	1128	977
206	1410	977
207	423	1221
208	282	1465
209	141	1709
210	-647	830
211	-1042	146
212	-422	1221
213	-281	1465
214	-140	1709
215	-845	977
216	-1127	977
217	-1409	977
218	-1042	-145
219	-647	-829
220	-1268	244
221	-1409	488
222	-1550	732
223	-1268	-243
224	-1409	-487
225	-1550	-731
226	-394	-976
227	395	-976
228	-845	-976
229	-1127	-976
230	-1409	-976
231	-422	-1220
232	-281	-1464
233	-140	-1708
234	648	-829
235	1043	-145
236	423	-1220
237	282	-1464
238	141	-1708
239	846	-976
240	1128	-976
241	1410	-976
DEMAND_SECTION
1	0
2	40
3	40
4	40
5	40
6	40
7	40
8	40
9	40
10	40
11	40
12	40
13	40
14	10
15	10
16	10
17	20
18	10
19	10
20	20
21	10
22	10
23	10
24	10
25	20
26	10
27	10
28	20
29	10
30	10
31	10
32	10
33	20
34	10
35	10
36	20
37	10
38	10
39	10
40	10
41	20
42	10
43	10
44	20
45	10
46	10
47	10
48	10
49	20
50	10
51	10
52	20
53	10
54	10
55	10
56	10
57	20
58	10
59	10
60	20
61	10
62	40
63	40
64	40
65	40
66	40
67	40
68	40
69	40
70	40
71	40
72	40
73	40
74	10
75	10
76	10
77	20
78	10
79	10
80	20
81	10
82	10
83	10
84	10
85	20
86	10
87	10
88	20
89	10
90	10
91	10
92	10
93	20
94	10
95	10
96	20
97	10
98	10
99	10
100	10
101	20
102	10
103	10
104	20
105	10
106	10
107	10
108	10
109	20
110	10
111	10
112	20
113	10
114	10
115	10
116	10
117	20
118	10
119	10
120	20
121	10
122	40
123	40
124	40
125	40
126	40
127	40
128	40
129	40
130	40
131	40
132	40
133	40
134	10
135	10
136	10
137	20
138	10
139	10
140	20
141	10
142	10
143	10
144	10
145	20
146	10
147	10
148	20
149	10
150	10
151	10
152	10
153	20
154	10
155	10
156	20
157	10
158	10
159	10
160	10
161	20
162	10
163	10
164	20
165	10
166	10
167	10
168	10
169	20
170	10
171	10
172	20
173	10
174	10
175	10
176	10
177	20
178	10
179	10
180	20
181	10
182	40
183	40
184	40
185	40
186	40
187	40
188	40
189	40
190	40
191	40
192	40
193	40
194	10
195	10
196	10
197	20
198	10
199	10
200	20
201	10
202	10
203	10
204	10
205	20
206	10
207	10
208	20
209	10
210	10
211	10
212	10
213	20
214	10
215	10
216	20
217	10
218	10
219	10
220	10
221	20
222	10
223	10
224	20
225	10
226	10
227	10
228	10
229	20
230	10
231	10
232	20
233	10
234	10
235	10
236	10
237	20
238	10
239	10
240	20
241	10
DEPOT_SECTION
1
-1
EOF
