experiment/data/lkh-res/Vrp-Set-Golden-n241/Vrp-Set-Golden-n241-lkh/1.lkh1.log
PARAMETER_FILE = baseline_results/cvrp_lkh/Vrp-Set-Golden-n241/Vrp-Set-Golden-n241-lkh/1.lkh1.par
Reading PROBLEM_FILE: "baseline_results/cvrp_lkh/Vrp-Set-Golden-n241/Vrp-Set-Golden-n241-lkh/1.lkh1.vrp" ... done
ASCENT_CANDIDATES = 50
BACKBONE_TRIALS = 0
BACKTRACKING = NO
# BWTSP =
# CANDIDATE_FILE =
CANDIDATE_SET_TYPE = ALPHA
# DISTANCE =
DEPOT = 1
# EDGE_FILE =
EXCESS = 0.00414938
EXTERNAL_SALESMEN = 0
EXTRA_CANDIDATES = 0 
EXTRA_CANDIDATE_SET_TYPE = QUADRANT
GAIN23 = NO
GAIN_CRITERION = YES
INITIAL_PERIOD = 120
INITIAL_STEP_SIZE = 1
INITIAL_TOUR_ALGORITHM = WALK
# INITIAL_TOUR_FILE = 
INITIAL_TOUR_FRACTION = 1.000
# INPUT_TOUR_FILE = 
KICK_TYPE = 4
KICKS = 1
# MAX_BREADTH =
MAKESPAN = NO
MAX_CANDIDATES = 5 
MAX_SWAPS = 0
MAX_TRIALS = 10000
# MERGE_TOUR_FILE =
MOVE_TYPE = 5 SPECIAL
MTSP_MIN_SIZE = 1
MTSP_MAX_SIZE = 240
# MTSP_SOLUTION_FILE = 
# NONSEQUENTIAL_MOVE_TYPE = 5
# OPTIMUM =
OUTPUT_TOUR_FILE = baseline_results/cvrp_lkh/Vrp-Set-Golden-n241/Vrp-Set-Golden-n241-lkh/1.lkh1.tour
PATCHING_A = 1 
PATCHING_C = 0 
# PI_FILE = 
POPMUSIC_INITIAL_TOUR = NO
POPMUSIC_MAX_NEIGHBORS = 5
POPMUSIC_SAMPLE_SIZE = 10
POPMUSIC_SOLUTIONS = 50
POPMUSIC_TRIALS = 1
POPULATION_SIZE = 10
PRECISION = 100
PROBLEM_FILE = baseline_results/cvrp_lkh/Vrp-Set-Golden-n241/Vrp-Set-Golden-n241-lkh/1.lkh1.vrp
RECOMBINATION = IPT
RESTRICTED_SEARCH = YES
RUNS = 1
SALESMEN = 22
SCALE = 1
SEED = 1234
# SINTEF_SOLUTION_FILE = 
STOP_AT_OPTIMUM = YES
SUBGRADIENT = YES
# SUBPROBLEM_SIZE =
# SUBPROBLEM_TOUR_FILE = 
SUBSEQUENT_MOVE_TYPE = 5 SPECIAL
SUBSEQUENT_PATCHING = YES
# TIME_LIMIT =
# TOTAL_TIME_LIMIT =
# TOUR_FILE = 
TRACE_LEVEL = 1
VEHICLES = 22

Lower bound = 59102.0, Ascent time = 0.09 sec.
Cand.min = 5, Cand.avg = 5.0, Cand.max = 5
Preprocessing time = 0.10 sec.
* 1: Cost = 0_76789, Time = 0.09 sec. 
Writing OUTPUT_TOUR_FILE: "baseline_results/cvrp_lkh/Vrp-Set-Golden-n241/Vrp-Set-Golden-n241-lkh/1.lkh1.tour" ... done
* 5: Cost = 0_76493, Time = 0.12 sec. 
Writing OUTPUT_TOUR_FILE: "baseline_results/cvrp_lkh/Vrp-Set-Golden-n241/Vrp-Set-Golden-n241-lkh/1.lkh1.tour" ... done
* 10: Cost = 0_76276, Time = 0.13 sec. 
Writing OUTPUT_TOUR_FILE: "baseline_results/cvrp_lkh/Vrp-Set-Golden-n241/Vrp-Set-Golden-n241-lkh/1.lkh1.tour" ... done
* 13: Cost = 0_75836, Time = 0.15 sec. 
Writing OUTPUT_TOUR_FILE: "baseline_results/cvrp_lkh/Vrp-Set-Golden-n241/Vrp-Set-Golden-n241-lkh/1.lkh1.tour" ... done
* 16: Cost = 0_75811, Time = 0.16 sec. 
Writing OUTPUT_TOUR_FILE: "baseline_results/cvrp_lkh/Vrp-Set-Golden-n241/Vrp-Set-Golden-n241-lkh/1.lkh1.tour" ... done
* 19: Cost = 0_75730, Time = 0.17 sec. 
Writing OUTPUT_TOUR_FILE: "baseline_results/cvrp_lkh/Vrp-Set-Golden-n241/Vrp-Set-Golden-n241-lkh/1.lkh1.tour" ... done
* 23: Cost = 0_75703, Time = 0.18 sec. 
Writing OUTPUT_TOUR_FILE: "baseline_results/cvrp_lkh/Vrp-Set-Golden-n241/Vrp-Set-Golden-n241-lkh/1.lkh1.tour" ... done
* 31: Cost = 0_75209, Time = 0.18 sec. 
Writing OUTPUT_TOUR_FILE: "baseline_results/cvrp_lkh/Vrp-Set-Golden-n241/Vrp-Set-Golden-n241-lkh/1.lkh1.tour" ... done
* 34: Cost = 0_75039, Time = 0.21 sec. 
Writing OUTPUT_TOUR_FILE: "baseline_results/cvrp_lkh/Vrp-Set-Golden-n241/Vrp-Set-Golden-n241-lkh/1.lkh1.tour" ... done
* 36: Cost = 0_74856, Time = 0.22 sec. 
Writing OUTPUT_TOUR_FILE: "baseline_results/cvrp_lkh/Vrp-Set-Golden-n241/Vrp-Set-Golden-n241-lkh/1.lkh1.tour" ... done
* 47: Cost = 0_74848, Time = 0.25 sec. 
Writing OUTPUT_TOUR_FILE: "baseline_results/cvrp_lkh/Vrp-Set-Golden-n241/Vrp-Set-Golden-n241-lkh/1.lkh1.tour" ... done
* 49: Cost = 0_74833, Time = 0.26 sec. 
Writing OUTPUT_TOUR_FILE: "baseline_results/cvrp_lkh/Vrp-Set-Golden-n241/Vrp-Set-Golden-n241-lkh/1.lkh1.tour" ... done
* 50: Cost = 0_74729, Time = 0.26 sec. 
Writing OUTPUT_TOUR_FILE: "baseline_results/cvrp_lkh/Vrp-Set-Golden-n241/Vrp-Set-Golden-n241-lkh/1.lkh1.tour" ... done
* 53: Cost = 0_74684, Time = 0.26 sec. 
Writing OUTPUT_TOUR_FILE: "baseline_results/cvrp_lkh/Vrp-Set-Golden-n241/Vrp-Set-Golden-n241-lkh/1.lkh1.tour" ... done
* 61: Cost = 0_74620, Time = 0.29 sec. 
Writing OUTPUT_TOUR_FILE: "baseline_results/cvrp_lkh/Vrp-Set-Golden-n241/Vrp-Set-Golden-n241-lkh/1.lkh1.tour" ... done
* 65: Cost = 0_74586, Time = 0.30 sec. 
Writing OUTPUT_TOUR_FILE: "baseline_results/cvrp_lkh/Vrp-Set-Golden-n241/Vrp-Set-Golden-n241-lkh/1.lkh1.tour" ... done
* 66: Cost = 0_74535, Time = 0.32 sec. 
Writing OUTPUT_TOUR_FILE: "baseline_results/cvrp_lkh/Vrp-Set-Golden-n241/Vrp-Set-Golden-n241-lkh/1.lkh1.tour" ... done
* 74: Cost = 0_74455, Time = 0.40 sec. 
Writing OUTPUT_TOUR_FILE: "baseline_results/cvrp_lkh/Vrp-Set-Golden-n241/Vrp-Set-Golden-n241-lkh/1.lkh1.tour" ... done
* 78: Cost = 0_74427, Time = 0.42 sec. 
Writing OUTPUT_TOUR_FILE: "baseline_results/cvrp_lkh/Vrp-Set-Golden-n241/Vrp-Set-Golden-n241-lkh/1.lkh1.tour" ... done
* 80: Cost = 0_74382, Time = 0.43 sec. 
Writing OUTPUT_TOUR_FILE: "baseline_results/cvrp_lkh/Vrp-Set-Golden-n241/Vrp-Set-Golden-n241-lkh/1.lkh1.tour" ... done
* 81: Cost = 0_74358, Time = 0.43 sec. 
Writing OUTPUT_TOUR_FILE: "baseline_results/cvrp_lkh/Vrp-Set-Golden-n241/Vrp-Set-Golden-n241-lkh/1.lkh1.tour" ... done
* 101: Cost = 0_73907, Time = 0.50 sec. 
Writing OUTPUT_TOUR_FILE: "baseline_results/cvrp_lkh/Vrp-Set-Golden-n241/Vrp-Set-Golden-n241-lkh/1.lkh1.tour" ... done
* 140: Cost = 0_73871, Time = 0.68 sec. 
Writing OUTPUT_TOUR_FILE: "baseline_results/cvrp_lkh/Vrp-Set-Golden-n241/Vrp-Set-Golden-n241-lkh/1.lkh1.tour" ... done
* 165: Cost = 0_73814, Time = 0.76 sec. 
Writing OUTPUT_TOUR_FILE: "baseline_results/cvrp_lkh/Vrp-Set-Golden-n241/Vrp-Set-Golden-n241-lkh/1.lkh1.tour" ... done
* 168: Cost = 0_73770, Time = 0.78 sec. 
Writing OUTPUT_TOUR_FILE: "baseline_results/cvrp_lkh/Vrp-Set-Golden-n241/Vrp-Set-Golden-n241-lkh/1.lkh1.tour" ... done
* 183: Cost = 0_73767, Time = 0.84 sec. 
Writing OUTPUT_TOUR_FILE: "baseline_results/cvrp_lkh/Vrp-Set-Golden-n241/Vrp-Set-Golden-n241-lkh/1.lkh1.tour" ... done
* 188: Cost = 0_73760, Time = 0.86 sec. 
Writing OUTPUT_TOUR_FILE: "baseline_results/cvrp_lkh/Vrp-Set-Golden-n241/Vrp-Set-Golden-n241-lkh/1.lkh1.tour" ... done
* 205: Cost = 0_73707, Time = 0.90 sec. 
Writing OUTPUT_TOUR_FILE: "baseline_results/cvrp_lkh/Vrp-Set-Golden-n241/Vrp-Set-Golden-n241-lkh/1.lkh1.tour" ... done
* 206: Cost = 0_73696, Time = 0.90 sec. 
Writing OUTPUT_TOUR_FILE: "baseline_results/cvrp_lkh/Vrp-Set-Golden-n241/Vrp-Set-Golden-n241-lkh/1.lkh1.tour" ... done
* 217: Cost = 0_73671, Time = 0.94 sec. 
Writing OUTPUT_TOUR_FILE: "baseline_results/cvrp_lkh/Vrp-Set-Golden-n241/Vrp-Set-Golden-n241-lkh/1.lkh1.tour" ... done
* 233: Cost = 0_73599, Time = 1.03 sec. 
Writing OUTPUT_TOUR_FILE: "baseline_results/cvrp_lkh/Vrp-Set-Golden-n241/Vrp-Set-Golden-n241-lkh/1.lkh1.tour" ... done
* 315: Cost = 0_73575, Time = 1.29 sec. 
Writing OUTPUT_TOUR_FILE: "baseline_results/cvrp_lkh/Vrp-Set-Golden-n241/Vrp-Set-Golden-n241-lkh/1.lkh1.tour" ... done
* 380: Cost = 0_73573, Time = 1.62 sec. 
Writing OUTPUT_TOUR_FILE: "baseline_results/cvrp_lkh/Vrp-Set-Golden-n241/Vrp-Set-Golden-n241-lkh/1.lkh1.tour" ... done
* 385: Cost = 0_73523, Time = 1.64 sec. 
Writing OUTPUT_TOUR_FILE: "baseline_results/cvrp_lkh/Vrp-Set-Golden-n241/Vrp-Set-Golden-n241-lkh/1.lkh1.tour" ... done
* 406: Cost = 0_73503, Time = 1.66 sec. 
Writing OUTPUT_TOUR_FILE: "baseline_results/cvrp_lkh/Vrp-Set-Golden-n241/Vrp-Set-Golden-n241-lkh/1.lkh1.tour" ... done
* 429: Cost = 0_73387, Time = 1.80 sec. 
Writing OUTPUT_TOUR_FILE: "baseline_results/cvrp_lkh/Vrp-Set-Golden-n241/Vrp-Set-Golden-n241-lkh/1.lkh1.tour" ... done
* 463: Cost = 0_73374, Time = 1.90 sec. 
Writing OUTPUT_TOUR_FILE: "baseline_results/cvrp_lkh/Vrp-Set-Golden-n241/Vrp-Set-Golden-n241-lkh/1.lkh1.tour" ... done
* 471: Cost = 0_73363, Time = 1.92 sec. 
Writing OUTPUT_TOUR_FILE: "baseline_results/cvrp_lkh/Vrp-Set-Golden-n241/Vrp-Set-Golden-n241-lkh/1.lkh1.tour" ... done
* 487: Cost = 0_73338, Time = 1.97 sec. 
Writing OUTPUT_TOUR_FILE: "baseline_results/cvrp_lkh/Vrp-Set-Golden-n241/Vrp-Set-Golden-n241-lkh/1.lkh1.tour" ... done
* 494: Cost = 0_73335, Time = 2.00 sec. 
Writing OUTPUT_TOUR_FILE: "baseline_results/cvrp_lkh/Vrp-Set-Golden-n241/Vrp-Set-Golden-n241-lkh/1.lkh1.tour" ... done
* 504: Cost = 0_73303, Time = 2.05 sec. 
Writing OUTPUT_TOUR_FILE: "baseline_results/cvrp_lkh/Vrp-Set-Golden-n241/Vrp-Set-Golden-n241-lkh/1.lkh1.tour" ... done
* 562: Cost = 0_73199, Time = 2.31 sec. 
Writing OUTPUT_TOUR_FILE: "baseline_results/cvrp_lkh/Vrp-Set-Golden-n241/Vrp-Set-Golden-n241-lkh/1.lkh1.tour" ... done
* 573: Cost = 0_73105, Time = 2.35 sec. 
Writing OUTPUT_TOUR_FILE: "baseline_results/cvrp_lkh/Vrp-Set-Golden-n241/Vrp-Set-Golden-n241-lkh/1.lkh1.tour" ... done
* 595: Cost = 0_73078, Time = 2.39 sec. 
Writing OUTPUT_TOUR_FILE: "baseline_results/cvrp_lkh/Vrp-Set-Golden-n241/Vrp-Set-Golden-n241-lkh/1.lkh1.tour" ... done
* 600: Cost = 0_73068, Time = 2.41 sec. 
Writing OUTPUT_TOUR_FILE: "baseline_results/cvrp_lkh/Vrp-Set-Golden-n241/Vrp-Set-Golden-n241-lkh/1.lkh1.tour" ... done
* 620: Cost = 0_73031, Time = 2.48 sec. 
Writing OUTPUT_TOUR_FILE: "baseline_results/cvrp_lkh/Vrp-Set-Golden-n241/Vrp-Set-Golden-n241-lkh/1.lkh1.tour" ... done
* 695: Cost = 0_72989, Time = 2.73 sec. 
Writing OUTPUT_TOUR_FILE: "baseline_results/cvrp_lkh/Vrp-Set-Golden-n241/Vrp-Set-Golden-n241-lkh/1.lkh1.tour" ... done
* 702: Cost = 0_72883, Time = 2.75 sec. 
Writing OUTPUT_TOUR_FILE: "baseline_results/cvrp_lkh/Vrp-Set-Golden-n241/Vrp-Set-Golden-n241-lkh/1.lkh1.tour" ... done
* 715: Cost = 0_72727, Time = 2.79 sec. 
Writing OUTPUT_TOUR_FILE: "baseline_results/cvrp_lkh/Vrp-Set-Golden-n241/Vrp-Set-Golden-n241-lkh/1.lkh1.tour" ... done
* 717: Cost = 0_72599, Time = 2.80 sec. 
Writing OUTPUT_TOUR_FILE: "baseline_results/cvrp_lkh/Vrp-Set-Golden-n241/Vrp-Set-Golden-n241-lkh/1.lkh1.tour" ... done
* 762: Cost = 0_72426, Time = 2.95 sec. 
Writing OUTPUT_TOUR_FILE: "baseline_results/cvrp_lkh/Vrp-Set-Golden-n241/Vrp-Set-Golden-n241-lkh/1.lkh1.tour" ... done
* 789: Cost = 0_72270, Time = 3.11 sec. 
Writing OUTPUT_TOUR_FILE: "baseline_results/cvrp_lkh/Vrp-Set-Golden-n241/Vrp-Set-Golden-n241-lkh/1.lkh1.tour" ... done
* 842: Cost = 0_72213, Time = 3.35 sec. 
Writing OUTPUT_TOUR_FILE: "baseline_results/cvrp_lkh/Vrp-Set-Golden-n241/Vrp-Set-Golden-n241-lkh/1.lkh1.tour" ... done
* 847: Cost = 0_72200, Time = 3.36 sec. 
Writing OUTPUT_TOUR_FILE: "baseline_results/cvrp_lkh/Vrp-Set-Golden-n241/Vrp-Set-Golden-n241-lkh/1.lkh1.tour" ... done
* 851: Cost = 0_72057, Time = 3.37 sec. 
Writing OUTPUT_TOUR_FILE: "baseline_results/cvrp_lkh/Vrp-Set-Golden-n241/Vrp-Set-Golden-n241-lkh/1.lkh1.tour" ... done
* 880: Cost = 0_72046, Time = 3.42 sec. 
Writing OUTPUT_TOUR_FILE: "baseline_results/cvrp_lkh/Vrp-Set-Golden-n241/Vrp-Set-Golden-n241-lkh/1.lkh1.tour" ... done
* 912: Cost = 0_72044, Time = 3.59 sec. 
Writing OUTPUT_TOUR_FILE: "baseline_results/cvrp_lkh/Vrp-Set-Golden-n241/Vrp-Set-Golden-n241-lkh/1.lkh1.tour" ... done
* 914: Cost = 0_72003, Time = 3.59 sec. 
Writing OUTPUT_TOUR_FILE: "baseline_results/cvrp_lkh/Vrp-Set-Golden-n241/Vrp-Set-Golden-n241-lkh/1.lkh1.tour" ... done
* 979: Cost = 0_71998, Time = 3.81 sec. 
Writing OUTPUT_TOUR_FILE: "baseline_results/cvrp_lkh/Vrp-Set-Golden-n241/Vrp-Set-Golden-n241-lkh/1.lkh1.tour" ... done
* 992: Cost = 0_71713, Time = 3.87 sec. 
Writing OUTPUT_TOUR_FILE: "baseline_results/cvrp_lkh/Vrp-Set-Golden-n241/Vrp-Set-Golden-n241-lkh/1.lkh1.tour" ... done
* 1016: Cost = 0_71671, Time = 4.02 sec. 
Writing OUTPUT_TOUR_FILE: "baseline_results/cvrp_lkh/Vrp-Set-Golden-n241/Vrp-Set-Golden-n241-lkh/1.lkh1.tour" ... done
* 1106: Cost = 0_71632, Time = 4.30 sec. 
Writing OUTPUT_TOUR_FILE: "baseline_results/cvrp_lkh/Vrp-Set-Golden-n241/Vrp-Set-Golden-n241-lkh/1.lkh1.tour" ... done
* 1216: Cost = 0_71566, Time = 4.74 sec. 
Writing OUTPUT_TOUR_FILE: "baseline_results/cvrp_lkh/Vrp-Set-Golden-n241/Vrp-Set-Golden-n241-lkh/1.lkh1.tour" ... done
* 1369: Cost = 0_71556, Time = 5.35 sec. 
Writing OUTPUT_TOUR_FILE: "baseline_results/cvrp_lkh/Vrp-Set-Golden-n241/Vrp-Set-Golden-n241-lkh/1.lkh1.tour" ... done
* 1744: Cost = 0_71548, Time = 6.93 sec. 
Writing OUTPUT_TOUR_FILE: "baseline_results/cvrp_lkh/Vrp-Set-Golden-n241/Vrp-Set-Golden-n241-lkh/1.lkh1.tour" ... done
* 1788: Cost = 0_71547, Time = 7.08 sec. 
Writing OUTPUT_TOUR_FILE: "baseline_results/cvrp_lkh/Vrp-Set-Golden-n241/Vrp-Set-Golden-n241-lkh/1.lkh1.tour" ... done
* 1964: Cost = 0_71538, Time = 7.83 sec. 
Writing OUTPUT_TOUR_FILE: "baseline_results/cvrp_lkh/Vrp-Set-Golden-n241/Vrp-Set-Golden-n241-lkh/1.lkh1.tour" ... done
* 2113: Cost = 0_71534, Time = 8.32 sec. 
Writing OUTPUT_TOUR_FILE: "baseline_results/cvrp_lkh/Vrp-Set-Golden-n241/Vrp-Set-Golden-n241-lkh/1.lkh1.tour" ... done
* 2179: Cost = 0_71493, Time = 8.61 sec. 
Writing OUTPUT_TOUR_FILE: "baseline_results/cvrp_lkh/Vrp-Set-Golden-n241/Vrp-Set-Golden-n241-lkh/1.lkh1.tour" ... done
* 2192: Cost = 0_71465, Time = 8.66 sec. 
Writing OUTPUT_TOUR_FILE: "baseline_results/cvrp_lkh/Vrp-Set-Golden-n241/Vrp-Set-Golden-n241-lkh/1.lkh1.tour" ... done
* 2557: Cost = 0_71440, Time = 10.09 sec. 
Writing OUTPUT_TOUR_FILE: "baseline_results/cvrp_lkh/Vrp-Set-Golden-n241/Vrp-Set-Golden-n241-lkh/1.lkh1.tour" ... done
* 4090: Cost = 0_71418, Time = 17.00 sec. 
Writing OUTPUT_TOUR_FILE: "baseline_results/cvrp_lkh/Vrp-Set-Golden-n241/Vrp-Set-Golden-n241-lkh/1.lkh1.tour" ... done
* 4921: Cost = 0_71407, Time = 20.81 sec. 
Writing OUTPUT_TOUR_FILE: "baseline_results/cvrp_lkh/Vrp-Set-Golden-n241/Vrp-Set-Golden-n241-lkh/1.lkh1.tour" ... done
* 4974: Cost = 0_71350, Time = 21.07 sec. 
Writing OUTPUT_TOUR_FILE: "baseline_results/cvrp_lkh/Vrp-Set-Golden-n241/Vrp-Set-Golden-n241-lkh/1.lkh1.tour" ... done
* 5261: Cost = 0_71315, Time = 22.28 sec. 
Writing OUTPUT_TOUR_FILE: "baseline_results/cvrp_lkh/Vrp-Set-Golden-n241/Vrp-Set-Golden-n241-lkh/1.lkh1.tour" ... done
Population:
  1: 0_71315
Run 1: Cost = 0_71315, Time = 41.00 sec. 

Successes/Runs = 0/1 
Cost.min = 71315, Cost.avg = 71315.00, Cost.max = 71315
Gap.min = 0.0000%, Gap.avg = 0.0000%, Gap.max = 0.0000%
Penalty.min = 0, Penalty.avg = 0.00, Penalty.max = 0
Trials.min = 10000, Trials.avg = 10000.0, Trials.max = 10000
Time.min = 41.00 sec., Time.avg = 41.00 sec., Time.max = 41.00 sec.
Time.total = 41.10 sec.
  Size.min = 7, Size.max = 15, Penalty = 0
  Cost.min = 1939, Cost.max = 4668, Cost.sum = 71315
Best CVRP solution:
  Cost = 0_71315

