experiment/data/lkh-res/Vrp-Set-Golden-n241/Vrp-Set-Golden-n241-lkh/1.lkh1.tour
NAME : 1.71315.tour
COMMENT : Length = 71315
COMMENT : Found by LKH-3 [Keld Helsgaun] Tue Apr  9 01:56:07 2024
TYPE : TOUR
DIMENSION : 262
TOUR_SECTION
1
39
99
48
49
108
159
126
66
6
253
168
219
228
229
230
191
225
131
170
169
109
247
57
58
12
118
72
178
177
117
116
56
47
243
34
9
94
69
154
213
212
153
93
33
252
30
64
124
184
203
152
143
92
83
23
246
22
27
82
87
147
202
183
195
144
85
84
135
75
24
15
251
61
13
121
180
239
187
234
179
120
60
244
31
91
40
41
100
151
125
65
5
38
262
42
101
102
161
160
211
185
218
163
104
103
158
98
43
249
54
59
114
119
174
127
67
7
255
2
62
122
134
79
20
19
74
14
248
150
155
210
215
216
217
190
222
130
162
221
220
256
21
81
68
146
205
204
145
86
8
26
25
242
46
51
106
111
166
171
226
186
231
232
172
112
52
257
4
32
28
142
123
63
3
258
44
45
11
105
164
223
224
165
71
110
50
245
29
89
149
129
214
189
209
208
207
148
88
259
139
194
199
200
201
188
206
128
141
140
80
261
36
37
10
97
70
157
156
96
95
90
35
260
73
181
240
241
193
198
133
138
78
18
254
17
77
137
197
196
182
235
136
175
76
115
16
55
250
53
113
173
132
233
192
238
237
236
227
176
167
107
-1
EOF
